letting n =  10
letting blocks =  [[1, 1], [1, 9], [2, 1], [2, 2], [2, 6], [2, 7], [3, 2], [3, 8], [4, 2], [4, 5], [5, 2], [5, 3], [5, 6], [5, 8], [5, 9], [6, 3], [7, 8], [8, 1], [8, 6], [8, 9], [9, 5], [9, 10], [10, 8], [10, 9]]
